10
0	905	513	987	619	181	628	289	324	622	
905	0	822	94	910	612	526	73	610	312	
513	822	0	504	7	644	457	753	634	765	
987	94	504	0	358	481	119	322	253	554	
619	910	7	358	0	131	454	396	865	120	
181	612	644	481	131	0	798	590	266	13	
628	526	457	119	454	798	0	116	304	513	
289	73	753	322	396	590	116	0	788	295	
324	610	634	253	865	266	304	788	0	36	
622	312	765	554	120	13	513	295	36	0	
